--- Job feedOptimizer.gms Start 08/04/20 16:45:10 31.1.0 r55b6ce3 WEX-WEI x86 64bit/MS Windows
--- Applying:
    E:\31.1\gmsprmNT.txt
--- GAMS Parameters defined
    Input C:\Users\hasee\Documents\GitHub\GAMS-MIRO\feedopt\feedOptimizer.gms
    PageSize 0
    ScrDir C:\Users\hasee\Documents\GitHub\GAMS-MIRO\feedopt\225a\
    SysDir E:\31.1\
    LogOption 3
    ErrMsg 1
    ErrorLog 99
    IDE 1
    LstTitleLeftAligned 1
    IDCGenerateJSON conf_feedOptimizer/feedOptimizer_io.json
    IDCGenerateGDX data_feedOptimizer/default.gdx
GAMS 31.1.0   Copyright (C) 1987-2020 GAMS Development. All rights reserved
Licensee: Michael Ferris Research Group - Eval           G191008/0001AS-GEN
          UW-Madison Computer Sciences Dept.                         DCE244
          E:\31.1\gamslice.txt
          Evaluation license: Not for commercial or production use
--- Starting compilation
--- feedOptimizer.gms(255) 3 Mb
--- Starting execution: elapsed 0:00:00.010
--- feedOptimizer.gms(215) 4 Mb
--- Generating MIP model feedOptimizer
--- feedOptimizer.gms(217) 4 Mb
---   1 rows  1 columns  1 non-zeroes
--- Executing CPLEX: elapsed 0:00:00.035

IBM ILOG CPLEX   31.1.0 r55b6ce3 Released May 01, 2020 WEI x86 64bit/MS Window
--- GAMS/Cplex licensed for continuous and discrete problems.
Cplex 12.10.0.0

Reading data...
Starting Cplex...
Space for names approximately 0.00 Mb
Use option 'names no' to turn use of names off
Version identifier: 12.10.0.0 | 2019-11-26 | 843d4de2ae
CPXPARAM_Advance                                 0
CPXPARAM_Simplex_Display                         2
CPXPARAM_Threads                                 1
CPXPARAM_Parallel                                1
CPXPARAM_Simplex_Limits_Iterations               2000000000
CPXPARAM_TimeLimit                               30
CPXPARAM_Tune_TimeLimit                          6
Tried aggregator 1 time.
LP Presolve eliminated 1 rows and 1 columns.
All rows and columns eliminated.
Presolve time = 0.00 sec. (0.00 ticks)
LP status(1): optimal
Cplex Time: 0.02sec (det. 0.00 ticks)

Optimal solution found.
Objective :           0.000000

--- Restarting execution
--- feedOptimizer.gms(217) 2 Mb
--- Reading solution for model feedOptimizer
--- Executing after solve: elapsed 0:00:00.150
--- feedOptimizer.gms(253) 3 Mb
--- GDX File C:\Users\hasee\Documents\GitHub\GAMS-MIRO\feedopt\data_feedOptimizer/default.gdx
*** Status: Normal completion
--- Job feedOptimizer.gms Stop 08/04/20 16:45:10 elapsed 0:00:00.162

TRACE [2020-08-04 16:45:16] Logging facility initialised.
DEBUG [2020-08-04 16:45:16] Database connection established.
DEBUG [2020-08-04 16:45:16] Access Control initialised.
INFO [2020-08-04 16:45:16] New data: 'default.gdx' is being stored in the database. Please wait a until the import is finished.
DEBUG [2020-08-04 16:45:17] Db: Data was imported from table: '_sys_metadata_feedoptimizer' (Db.importDataset).
DEBUG [2020-08-04 16:45:17] Db: 20 rows in table: '_sys_metadata_feedoptimizer' were deleted. (Db.deleteRows)
DEBUG [2020-08-04 16:45:17] Db: Metadata (table: '_sys_metadata_feedoptimizer') was written to database. (Db.writeMetadata).
DEBUG [2020-08-04 16:45:17] Db: Metadata (table: '_sys_metadata_feedoptimizer') was added for scenario: 'default' (Scenario.writeMetadata).
DEBUG [2020-08-04 16:45:17] Db: Data was added to table: 'feedoptimizer_c' (Db.exportScenDataset).
DEBUG [2020-08-04 16:45:18] Db: Data was added to table: 'feedoptimizer_storyinfo' (Db.exportScenDataset).
DEBUG [2020-08-04 16:45:18] Db: Data was added to table: 'feedoptimizer_cscore' (Db.exportScenDataset).
DEBUG [2020-08-04 16:45:18] Db: Data was added to table: 'feedoptimizer__scalars' (Db.exportScenDataset).
DEBUG [2020-08-04 16:45:18] Db: Data was imported from table: '_sys_scenlocks_feedoptimizer' (Db.importDataset).
DEBUG [2020-08-04 16:45:18] Db: hasee: Lock was added for scenario: '1' (Scenario.lock).
INFO [2020-08-04 16:45:18] New data: 'feedoptimizer_1D_feed.gdx' is being stored in the database. Please wait a until the import is finished.
DEBUG [2020-08-04 16:45:18] Db: Data was imported from table: '_sys_metadata_feedoptimizer' (Db.importDataset).
DEBUG [2020-08-04 16:45:18] Db: 884 rows in table: '_sys_metadata_feedoptimizer' were deleted. (Db.deleteRows)
DEBUG [2020-08-04 16:45:18] Db: Metadata (table: '_sys_metadata_feedoptimizer') was written to database. (Db.writeMetadata).
DEBUG [2020-08-04 16:45:18] Db: Metadata (table: '_sys_metadata_feedoptimizer') was added for scenario: 'feedoptimizer_1D_feed' (Scenario.writeMetadata).
DEBUG [2020-08-04 16:45:18] Db: Data was added to table: 'feedoptimizer_result' (Db.exportScenDataset).
DEBUG [2020-08-04 16:45:18] Db: Data was added to table: 'feedoptimizer_c' (Db.exportScenDataset).
DEBUG [2020-08-04 16:45:18] Db: Data was added to table: 'feedoptimizer_storyinfo' (Db.exportScenDataset).
DEBUG [2020-08-04 16:45:18] Db: Data was added to table: 'feedoptimizer_cscore' (Db.exportScenDataset).
DEBUG [2020-08-04 16:45:18] Db: Data was added to table: 'feedoptimizer__scalars' (Db.exportScenDataset).
DEBUG [2020-08-04 16:45:18] Db: Data was imported from table: '_sys_scenlocks_feedoptimizer' (Db.importDataset).
DEBUG [2020-08-04 16:45:18] Db: hasee: Lock was added for scenario: '2' (Scenario.lock).
INFO [2020-08-04 16:45:18] New data: 'feedoptimizer_2D_feed.gdx' is being stored in the database. Please wait a until the import is finished.
DEBUG [2020-08-04 16:45:19] Db: Data was imported from table: '_sys_metadata_feedoptimizer' (Db.importDataset).
DEBUG [2020-08-04 16:45:19] Db: 884 rows in table: '_sys_metadata_feedoptimizer' were deleted. (Db.deleteRows)
DEBUG [2020-08-04 16:45:19] Db: Metadata (table: '_sys_metadata_feedoptimizer') was written to database. (Db.writeMetadata).
DEBUG [2020-08-04 16:45:19] Db: Metadata (table: '_sys_metadata_feedoptimizer') was added for scenario: 'feedoptimizer_2D_feed' (Scenario.writeMetadata).
DEBUG [2020-08-04 16:45:19] Db: Data was added to table: 'feedoptimizer_result' (Db.exportScenDataset).
DEBUG [2020-08-04 16:45:19] Db: Data was added to table: 'feedoptimizer_c' (Db.exportScenDataset).
DEBUG [2020-08-04 16:45:19] Db: Data was added to table: 'feedoptimizer_storyinfo' (Db.exportScenDataset).
DEBUG [2020-08-04 16:45:19] Db: Data was added to table: 'feedoptimizer_cscore' (Db.exportScenDataset).
DEBUG [2020-08-04 16:45:19] Db: Data was added to table: 'feedoptimizer__scalars' (Db.exportScenDataset).
DEBUG [2020-08-04 16:45:19] Db: Data was imported from table: '_sys_scenlocks_feedoptimizer' (Db.importDataset).
DEBUG [2020-08-04 16:45:19] Db: 1 rows in table: '_sys_scenlocks_feedoptimizer' were deleted. (Db.deleteRows)
DEBUG [2020-08-04 16:45:19] Db: hasee: Lock was added for scenario: '3' (Scenario.lock).
INFO [2020-08-04 16:45:24] Session started (model: 'feedoptimizer', user: 'hasee', workdir: 'C:/Users/hasee/Documents/GitHub/GAMS-MIRO/feedopt').
DEBUG [2020-08-04 16:45:24] Working directory was created: 'C:/Users/hasee/Documents/GitHub/GAMS-MIRO/feedopt'.
DEBUG [2020-08-04 16:45:24] Db: Data was imported from table: '_sys_metadata_feedoptimizer' (Db.importDataset).
DEBUG [2020-08-04 16:45:25] Scenario: '3' unlocked.
DEBUG [2020-08-04 16:45:25] Db: 1 rows in table: '_sys_scenlocks_feedoptimizer' were deleted. (Db.deleteRows)
DEBUG [2020-08-04 16:45:25] Scenario: '2' unlocked.
DEBUG [2020-08-04 16:45:25] Db: 1 rows in table: '_sys_scenlocks_feedoptimizer' were deleted. (Db.deleteRows)
DEBUG [2020-08-04 16:45:25] Scenario: '1' unlocked.
DEBUG [2020-08-04 16:45:25] Db: 1 rows in table: '_sys_scenlocks_feedoptimizer' were deleted. (Db.deleteRows)
DEBUG [2020-08-04 16:45:26] Sidebar menu item: 'inputData' selected.
DEBUG [2020-08-04 16:46:20] hasee: Import input data button clicked.
DEBUG [2020-08-04 16:46:20] Db: Data was imported from table: '_sys_metadata_feedoptimizer' (Db.importDataset).
DEBUG [2020-08-04 16:46:23] Confirm load scenario button clicked.
DEBUG [2020-08-04 16:46:23] Loading and rendering scenarios: '3'.
DEBUG [2020-08-04 16:46:23] Db: Data was imported from table: 'feedoptimizer_result' (Db.importDataset).
DEBUG [2020-08-04 16:46:23] Db: Data was imported from table: 'feedoptimizer_c' (Db.importDataset).
DEBUG [2020-08-04 16:46:23] Db: Data was imported from table: 'feedoptimizer_storyinfo' (Db.importDataset).
DEBUG [2020-08-04 16:46:23] Db: Data was imported from table: 'feedoptimizer_cscore' (Db.importDataset).
DEBUG [2020-08-04 16:46:23] Db: Data was imported from table: 'feedoptimizer__scalars' (Db.importDataset).
DEBUG [2020-08-04 16:46:23] Db: A table named: '_sys_scripts_feedoptimizer' does not exist in the database (Db.importDataset).
DEBUG [2020-08-04 16:46:23] Scenario: 'New Scenario' closed.
DEBUG [2020-08-04 16:46:23] Db: Data was imported from table: '_sys_metadata_feedoptimizer' (Db.importDataset).
DEBUG [2020-08-04 16:46:23] Db: Data was imported from table: '_sys_scenlocks_feedoptimizer' (Db.importDataset).
DEBUG [2020-08-04 16:46:23] Db: hasee: Lock was added for scenario: '3' (Scenario.lock).
DEBUG [2020-08-04 16:46:23] Dataset: c loaded successfully (mode: scen, overwrite: FALSE)
DEBUG [2020-08-04 16:46:24] Dataset: storyinfo loaded successfully (mode: scen, overwrite: FALSE)
DEBUG [2020-08-04 16:46:24] Dataset: cscore loaded successfully (mode: scen, overwrite: FALSE)
DEBUG [2020-08-04 16:46:24] Scenario: '3' was loaded into UI
INFO [2020-08-04 16:46:28] Session ended (model: 'feedoptimizer', user: 'hasee').
